Maximize
  0.2952072492205349 Z_533_0_0 + 0.0418983241177536 Z_533_0_1
   + 0.0165347946094497 Z_533_0_2 + 0.2270138181189067 Z_533_0_3
   + 0.00909997664558027 Z_533_1_0 + 0.00741903989115502 Z_533_1_1
   + 0.4657867563507246 Z_533_1_2 + 0.0171836371829779 Z_533_1_3
   + 0.00321854 Z_252_0_0 + 0.0195080644760446 Z_252_0_1
   + 0.3469157235297335 Z_252_0_2 + 0.6048078713497631 Z_252_0_3
   + 0.00123489035027959 Z_181_0_0 + 0.0144868971733429 Z_181_0_1
   + 0.3571520898373415 Z_181_0_2 + 0.5875977007166298 Z_181_0_3
   + 0.0103367988953445 Z_284_1_0 + 0.0101824575114489 Z_284_1_1
   + 0.5229462607978216 Z_284_1_2 + 0.0260103888202102 Z_284_1_3
   + 0.2519204755182931 Z_284_0_0 + 0.1417830969445382 Z_284_0_1
   + 0.062636265438637 Z_284_0_2 + 0.0213348204644233 Z_284_0_3
   + 6.7665914162441394e-04 Z_203_0_0 + 0.056792380391571 Z_203_0_1
   + 0.4537664184666174 Z_203_0_2 + 0.6282314124667696 Z_203_0_3
   + 0.00115247318215991 Z_402_0_0 + 0.0188581105480607 Z_402_0_1
   + 0.3774158939469816 Z_402_0_2 + 0.5643133464385013 Z_402_0_3 + [
   0.4 Z_533_0_0 * Z_252_0_0 + 0.4 Z_533_0_0 * Z_181_0_0
   + 0.4 Z_533_0_0 * Z_402_0_0 + 0.4 Z_533_0_1 * Z_252_0_1
   + 0.4 Z_533_0_1 * Z_181_0_1 + 0.4 Z_533_0_1 * Z_402_0_1
   + 0.4 Z_533_0_2 * Z_252_0_2 + 0.4 Z_533_0_2 * Z_181_0_2
   + 0.4 Z_533_0_2 * Z_402_0_2 + 0.4 Z_533_0_3 * Z_252_0_3
   + 0.4 Z_533_0_3 * Z_181_0_3 + 0.4 Z_533_0_3 * Z_402_0_3
   + 0.0356406146512203 Z_533_1_0 * Z_252_0_0
   + 0.00107664722732609 Z_533_1_0 * Z_181_0_0
   + 0.0356406146512203 Z_533_1_0 * Z_402_0_0
   + 0.0356406146512203 Z_533_1_1 * Z_252_0_1
   + 0.00107664722732609 Z_533_1_1 * Z_181_0_1
   + 0.0356406146512203 Z_533_1_1 * Z_402_0_1
   + 0.0356406146512203 Z_533_1_2 * Z_252_0_2
   + 0.00107664722732609 Z_533_1_2 * Z_181_0_2
   + 0.0356406146512203 Z_533_1_2 * Z_402_0_2
   + 0.0356406146512203 Z_533_1_3 * Z_252_0_3
   + 0.00107664722732609 Z_533_1_3 * Z_181_0_3
   + 0.0356406146512203 Z_533_1_3 * Z_402_0_3
   + 0.0922867431421664 Z_252_0_0 * Z_181_0_0
   + 0.0351712938004668 Z_252_0_0 * Z_284_0_0
   + 0.2065970558115907 Z_252_0_0 * Z_402_0_0
   + 0.0922867431421664 Z_252_0_1 * Z_181_0_1
   + 0.0351712938004668 Z_252_0_1 * Z_284_0_1
   + 0.2065970558115907 Z_252_0_1 * Z_402_0_1
   + 0.0922867431421664 Z_252_0_2 * Z_181_0_2
   + 0.0351712938004668 Z_252_0_2 * Z_284_0_2
   + 0.2065970558115907 Z_252_0_2 * Z_402_0_2
   + 0.0922867431421664 Z_252_0_3 * Z_181_0_3
   + 0.0351712938004668 Z_252_0_3 * Z_284_0_3
   + 0.2065970558115907 Z_252_0_3 * Z_402_0_3
   + 4.4444444444444436e-04 Z_181_0_0 * Z_284_1_0
   + 0.0332071441767298 Z_181_0_0 * Z_284_0_0
   + 0.0613300536417166 Z_181_0_0 * Z_203_0_0
   + 0.2017983128128274 Z_181_0_0 * Z_402_0_0
   + 4.4444444444444436e-04 Z_181_0_1 * Z_284_1_1
   + 0.0332071441767298 Z_181_0_1 * Z_284_0_1
   + 0.0613300536417166 Z_181_0_1 * Z_203_0_1
   + 0.2017983128128274 Z_181_0_1 * Z_402_0_1
   + 4.4444444444444436e-04 Z_181_0_2 * Z_284_1_2
   + 0.0332071441767298 Z_181_0_2 * Z_284_0_2
   + 0.0613300536417166 Z_181_0_2 * Z_203_0_2
   + 0.2017983128128274 Z_181_0_2 * Z_402_0_2
   + 4.4444444444444436e-04 Z_181_0_3 * Z_284_1_3
   + 0.0332071441767298 Z_181_0_3 * Z_284_0_3
   + 0.0613300536417166 Z_181_0_3 * Z_203_0_3
   + 0.2017983128128274 Z_181_0_3 * Z_402_0_3
   + 5.46665e-05 Z_284_1_0 * Z_203_0_0 + 5.46665e-05 Z_284_1_1 * Z_203_0_1
   + 5.46665e-05 Z_284_1_2 * Z_203_0_2 + 5.46665e-05 Z_284_1_3 * Z_203_0_3
   + 0.0461042106620642 Z_284_0_0 * Z_203_0_0
   + 0.0351712938004668 Z_284_0_0 * Z_402_0_0
   + 0.0461042106620642 Z_284_0_1 * Z_203_0_1
   + 0.0351712938004668 Z_284_0_1 * Z_402_0_1
   + 0.0461042106620642 Z_284_0_2 * Z_203_0_2
   + 0.0351712938004668 Z_284_0_2 * Z_402_0_2
   + 0.0461042106620642 Z_284_0_3 * Z_203_0_3
   + 0.0351712938004668 Z_284_0_3 * Z_402_0_3 ] / 2 
Subject To
 constraint1_5330: Z_533_0_0 + Z_533_0_1 + Z_533_0_2 + Z_533_0_3 <= 1
 constraint1_5331: Z_533_1_0 + Z_533_1_1 + Z_533_1_2 + Z_533_1_3 <= 1
 constraint1_2520: Z_252_0_0 + Z_252_0_1 + Z_252_0_2 + Z_252_0_3 <= 1
 constraint1_1810: Z_181_0_0 + Z_181_0_1 + Z_181_0_2 + Z_181_0_3 <= 1
 constraint1_2841: Z_284_1_0 + Z_284_1_1 + Z_284_1_2 + Z_284_1_3 <= 1
 constraint1_2840: Z_284_0_0 + Z_284_0_1 + Z_284_0_2 + Z_284_0_3 <= 1
 constraint1_2030: Z_203_0_0 + Z_203_0_1 + Z_203_0_2 + Z_203_0_3 <= 1
 constraint1_4020: Z_402_0_0 + Z_402_0_1 + Z_402_0_2 + Z_402_0_3 <= 1
 constraint2_5330: Z_533_0_0 + Z_533_1_0 <= 1
 constraint2_5331: Z_533_0_1 + Z_533_1_1 <= 1
 constraint2_5332: Z_533_0_2 + Z_533_1_2 <= 1
 constraint2_5333: Z_533_0_3 + Z_533_1_3 <= 1
 constraint2_2520: Z_252_0_0 <= 1
 constraint2_2521: Z_252_0_1 <= 1
 constraint2_2522: Z_252_0_2 <= 1
 constraint2_2523: Z_252_0_3 <= 1
 constraint2_1810: Z_181_0_0 <= 1
 constraint2_1811: Z_181_0_1 <= 1
 constraint2_1812: Z_181_0_2 <= 1
 constraint2_1813: Z_181_0_3 <= 1
 constraint2_2840: Z_284_1_0 + Z_284_0_0 <= 1
 constraint2_2841: Z_284_1_1 + Z_284_0_1 <= 1
 constraint2_2842: Z_284_1_2 + Z_284_0_2 <= 1
 constraint2_2843: Z_284_1_3 + Z_284_0_3 <= 1
 constraint2_2030: Z_203_0_0 <= 1
 constraint2_2031: Z_203_0_1 <= 1
 constraint2_2032: Z_203_0_2 <= 1
 constraint2_2033: Z_203_0_3 <= 1
 constraint2_4020: Z_402_0_0 <= 1
 constraint2_4021: Z_402_0_1 <= 1
 constraint2_4022: Z_402_0_2 <= 1
 constraint2_4023: Z_402_0_3 <= 1
Bounds
Binaries
 Z_533_0_0 Z_533_0_1 Z_533_0_2 Z_533_0_3 Z_533_1_0 Z_533_1_1 Z_533_1_2
 Z_533_1_3 Z_252_0_0 Z_252_0_1 Z_252_0_2 Z_252_0_3 Z_181_0_0 Z_181_0_1
 Z_181_0_2 Z_181_0_3 Z_284_1_0 Z_284_1_1 Z_284_1_2 Z_284_1_3 Z_284_0_0
 Z_284_0_1 Z_284_0_2 Z_284_0_3 Z_203_0_0 Z_203_0_1 Z_203_0_2 Z_203_0_3
 Z_402_0_0 Z_402_0_1 Z_402_0_2 Z_402_0_3
End
